30 1 5
472 608 78 653 478 745 656 94 318 172 758 796 320 698 404 39 471 41 982 134 890 901 1 614 861 163 827 698 964 13 
729 435 973 158 87 450 902 94 896 572 618 653 367 937 350 122 327 173 163 308 306 404 208 306 370 421 821 548 470 136 
561 550 570 885 707 9 686 961 454 581 532 71 585 250 359 287 371 686 459 885 345 116 289 553 774 10 325 946 557 146 
81 469 696 2 353 402 10 39 714 816 619 245 886 556 846 245 194 217 282 4 101 626 119 741 530 892 102 854 189 659 
352 269 127 47 271 832 800 632 870 514 447 840 110 685 395 956 929 940 524 562 943 976 187 62 69 717 305 170 922 494 
8280 2730 1140 3070 6710 3840 1380 4710 3680 3590 3360 8140 1980 4450 4980 9450 7520 7780 8840 2750 3390 8270 2510 8780 8880 6710 9460 5440 8400 8670 
84440
